0 7672766
3 7630646
6 7564580
7 7561624
17 7405737
18 7400368
32 7397466
40 7394999
50 7328676
58 7269500
60 7255300
64 7251147
73 7234921
82 7231918
94 7230088
101 7202521
118 7202148
128 7201335
141 7196794
143 7195789
145 7184718
174 7184637
183 7179307
209 7177342
216 7177245
221 7175039
225 7174815
226 7174737
267 7173869
270 7172563
272 7172388
300 7164978
361 7164940
368 7153171
379 7151866
398 7151827
407 7137170
449 7135623
454 7121837
483 7121725
491 7121425
536 7121418
537 7118350
587 7114632
589 7110927
604 7108964
755 7108862
770 7102466
799 7102078
853 7101655
880 7101162
930 7101072
944 7101053
1103 7101011
1239 7100570
1379 7100521
1559 7100472
1642 7100304
